70
    1    16    16
    2    23    27
    3    30    33
    4    49    46
    5    18    25
    6    56    58
    7    51    46
    8    30    32
    9    59    54
   10    23    29
   11     3     8
   12    14    14
   13    52    45
   14    44    51
   15    48    55
   16    52    45
   17    51    44
   18     1     7
   19    17    14
   20    67    67
   21     9     2
   22     3     6
   23    50    55
   24     5    11
   25    41    41
   26    51    51
   27    50    47
   28    12    18
   29    38    40
   30    37    32
   31     5     6
   32     3    10
   33    14    12
   34    14    12
   35     5     5
   36    61    62
   37    26    27
   38    50    51
   39    52    59
   40     6     5
   41    39    46
   42    11    10
   43    22    17
   44    42    38
   45    68    70
   46    51    57
   47    46    46
   48    48    46
   49    14    18
   50     2     9
   51    49    45
   52     4     3
   53    35    40
   54     9     3
   55    22    25
   56    10     4
   57     1     2
   58     8     1
   59    16     9
   60    17    11
   61    48    41
   62    45    49
   63    55    56
   64    58    53
   65    57    52
   66    54    57
   67    57    51
   68    29    33
   69    16    15
   70    54    58
71
